JulietBench/Juliet_Based_Patch_Bench/linux/CWE-190-Integer-Overflow-or-Wraparound/CVE_2016_9754_59643d1535eb220668692a5359de22545af579f6/solverring_buffer_resize_Snippet_patch2.smt2
; benchmark generated from python API
(set-info :status unknown)
(declare-fun R () (_ BitVec 32))
(declare-fun rdi () (_ BitVec 64))
(assert
 (let (($x99 (and (distinct (_ bv8157 32) R) true)))
 (let ((?x12 (bvadd (_ bv8156 64) rdi)))
 (let ((?x14 (concat (_ bv0 64) ?x12)))
 (let ((?x15 (bvmul (_ bv9262947618721873657 128) ?x14)))
 (let ((?x22 ((_ extract 127 76) ?x15)))
 (let ((?x23 (concat (_ bv0 12) ?x22)))
 (let ((?x24 (bvmul (_ bv8157 64) ?x23)))
 (let ((?x80 (bvadd (_ bv8156 64) ?x24)))
 (let ((?x81 (concat (_ bv0 64) ?x80)))
 (let ((?x82 (bvmul (_ bv9262947618721873657 128) ?x81)))
 (let ((?x11 ((_ extract 107 76) ?x82)))
 (let (($x18 (= R ?x11)))
 (let (($x64 (bvugt ?x24 (_ bv16313 64))))
 (let (($x91 (and $x64 $x18)))
 (let (($x21 (= (_ bv2 32) R)))
 (let (($x26 (bvule ?x24 (_ bv16313 64))))
 (let (($x10 (and $x26 $x21)))
 (let (($x92 (or $x10 $x91)))
 (let (($x98 (not $x92)))
 (let (($x100 (and $x98 $x99)))
 (let (($x96 (= (_ bv8157 32) R)))
 (let (($x97 (and $x92 $x96)))
 (let (($x101 (or $x97 $x100)))
 (not $x101)))))))))))))))))))))))))
(check-sat)
